\ Model MPC
\ LP format - for model browsing. Use MPS format to capture full model detail.
Minimize
 [ 2.17014e-06 y[0,0] ^2 + 2.82449e-07 y[0,1] ^2 + 1.82326e-07 y[0,2] ^2
   + 1.54707e-06 y[0,3] ^2 + 2.17014e-06 y[1,0] ^2 + 2.82449e-07 y[1,1] ^2
   + 1.82326e-07 y[1,2] ^2 + 1.54707e-06 y[1,3] ^2 + 2.17014e-06 y[2,0] ^2
   + 2.82449e-07 y[2,1] ^2 + 1.82326e-07 y[2,2] ^2 + 1.54707e-06 y[2,3] ^2
   + 2.17014e-06 y[3,0] ^2 + 2.82449e-07 y[3,1] ^2 + 1.82326e-07 y[3,2] ^2
   + 1.54707e-06 y[3,3] ^2 + 2.17014e-06 y[4,0] ^2 + 2.82449e-07 y[4,1] ^2
   + 1.82326e-07 y[4,2] ^2 + 1.54707e-06 y[4,3] ^2 + 2.17014e-06 y[5,0] ^2
   + 2.82449e-07 y[5,1] ^2 + 1.82326e-07 y[5,2] ^2 + 1.54707e-06 y[5,3] ^2
   + 0.1 z[0,0] ^2 + 0.2 z[0,1] ^2 + 0.5 z[0,2] ^2 + 0.5 z[0,3] ^2
   + 0.1 z[1,0] ^2 + 0.2 z[1,1] ^2 + 0.5 z[1,2] ^2 + 0.5 z[1,3] ^2
   + 0.1 z[2,0] ^2 + 0.2 z[2,1] ^2 + 0.5 z[2,2] ^2 + 0.5 z[2,3] ^2
   + 0.1 z[3,0] ^2 + 0.2 z[3,1] ^2 + 0.5 z[3,2] ^2 + 0.5 z[3,3] ^2
   + 0.1 z[4,0] ^2 + 0.2 z[4,1] ^2 + 0.5 z[4,2] ^2 + 0.5 z[4,3] ^2 ] / 2 
Subject To
 R0: x[0,0] = 23
 R1: x[0,1] = 112
 R2: x[0,2] = 29
 R3: x[0,3] = 237
 R4: u[0,0] - u[0,1] = 0
 R5: u[0,3] - u_41 - u_43 = 0
 R6: u[0,2] + u_41 - u_43 = -3
 R7: - u[0,0] - u[0,2] + C - u_41 = 9
 R8: - 3 u_41 + u_43 >= 0
 R9: u[0,0] - 3 u_41 >= 0
 R10: u[0,2] - 3 u_41 >= 0
 R11: - x[0,0] + y[0,0] = 0
 R12: - x[0,1] + y[0,1] = 0
 R13: - x[0,2] + y[0,2] = 0
 R14: - x[0,3] + y[0,3] = 0
 R15: z[0,0] = 0
 R16: z[0,1] = 0
 R17: z[0,2] = 0
 R18: z[0,3] = 0
 R19: u[1,0] - u[1,1] = 0
 R20: u[1,3] - u_41 - u_43 = 0
 R21: u[1,2] + u_41 - u_43 = -3
 R22: - u[1,0] - u[1,2] + C - u_41 = 9
 R23: - 3 u_41 + u_43 >= 0
 R24: u[1,0] - 3 u_41 >= 0
 R25: u[1,2] - 3 u_41 >= 0
 R26: - x[1,0] + y[1,0] = 0
 R27: - x[1,1] + y[1,1] = 0
 R28: - x[1,2] + y[1,2] = 0
 R29: - x[1,3] + y[1,3] = 0
 R30: u[0,0] - u[1,0] + z[1,0] = 0
 R31: u[0,1] - u[1,1] + z[1,1] = 0
 R32: u[0,2] - u[1,2] + z[1,2] = 0
 R33: u[0,3] - u[1,3] + z[1,3] = 0
 R34: u[2,0] - u[2,1] = 0
 R35: u[2,3] - u_41 - u_43 = 0
 R36: u[2,2] + u_41 - u_43 = -3
 R37: - u[2,0] - u[2,2] + C - u_41 = 9
 R38: - 3 u_41 + u_43 >= 0
 R39: u[2,0] - 3 u_41 >= 0
 R40: u[2,2] - 3 u_41 >= 0
 R41: - x[2,0] + y[2,0] = 0
 R42: - x[2,1] + y[2,1] = 0
 R43: - x[2,2] + y[2,2] = 0
 R44: - x[2,3] + y[2,3] = 0
 R45: u[0,0] - u[2,0] + z[2,0] = 0
 R46: u[0,1] - u[2,1] + z[2,1] = 0
 R47: u[0,2] - u[2,2] + z[2,2] = 0
 R48: u[0,3] - u[2,3] + z[2,3] = 0
 R49: u[3,0] - u[3,1] = 0
 R50: u[3,3] - u_41 - u_43 = 0
 R51: u[3,2] + u_41 - u_43 = -3
 R52: - u[3,0] - u[3,2] + C - u_41 = 9
 R53: - 3 u_41 + u_43 >= 0
 R54: u[3,0] - 3 u_41 >= 0
 R55: u[3,2] - 3 u_41 >= 0
 R56: - x[3,0] + y[3,0] = 0
 R57: - x[3,1] + y[3,1] = 0
 R58: - x[3,2] + y[3,2] = 0
 R59: - x[3,3] + y[3,3] = 0
 R60: u[0,0] - u[3,0] + z[3,0] = 0
 R61: u[0,1] - u[3,1] + z[3,1] = 0
 R62: u[0,2] - u[3,2] + z[3,2] = 0
 R63: u[0,3] - u[3,3] + z[3,3] = 0
 R64: u[4,0] - u[4,1] = 0
 R65: u[4,3] - u_41 - u_43 = 0
 R66: u[4,2] + u_41 - u_43 = -3
 R67: - u[4,0] - u[4,2] + C - u_41 = 9
 R68: - 3 u_41 + u_43 >= 0
 R69: u[4,0] - 3 u_41 >= 0
 R70: u[4,2] - 3 u_41 >= 0
 R71: - x[4,0] + y[4,0] = 0
 R72: - x[4,1] + y[4,1] = 0
 R73: - x[4,2] + y[4,2] = 0
 R74: - x[4,3] + y[4,3] = 0
 R75: u[0,0] - u[4,0] + z[4,0] = 0
 R76: u[0,1] - u[4,1] + z[4,1] = 0
 R77: u[0,2] - u[4,2] + z[4,2] = 0
 R78: u[0,3] - u[4,3] + z[4,3] = 0
 R79: - x[5,0] + y[5,0] = 0
 R80: - x[5,1] + y[5,1] = 0
 R81: - x[5,2] + y[5,2] = 0
 R82: - x[5,3] + y[5,3] = 0
 qc0: - x[0,0] + x[1,0] + [ 17.28722222222222 u[0,0] * C_dummy ] = 38
 qc1: - x[0,1] + x[1,1] + [ 31.03888888888889 u[0,1] * C_dummy ] = 59
 qc2: - x[0,2] + x[1,2] + [ 41.46055555555555 u[0,2] * C_dummy ] = 30
 qc3: - x[0,3] + x[1,3] + [ 65.77777777777777 u[0,3] * C_dummy ] = 104
 qc4: - x[1,0] + x[2,0] + [ 17.28722222222222 u[1,0] * C_dummy ] = 36
 qc5: - x[1,1] + x[2,1] + [ 31.03888888888889 u[1,1] * C_dummy ] = 30
 qc6: - x[1,2] + x[2,2] + [ 41.46055555555555 u[1,2] * C_dummy ] = 31
 qc7: - x[1,3] + x[2,3] + [ 65.77777777777777 u[1,3] * C_dummy ] = 71
 qc8: - x[2,0] + x[3,0] + [ 17.28722222222222 u[2,0] * C_dummy ] = 36
 qc9: - x[2,1] + x[3,1] + [ 31.03888888888889 u[2,1] * C_dummy ] = 50
 qc10: - x[2,2] + x[3,2] + [ 41.46055555555555 u[2,2] * C_dummy ] = 31
 qc11: - x[2,3] + x[3,3] + [ 65.77777777777777 u[2,3] * C_dummy ] = 105
 qc12: - x[3,0] + x[4,0] + [ 17.28722222222222 u[3,0] * C_dummy ] = 35
 qc13: - x[3,1] + x[4,1] + [ 31.03888888888889 u[3,1] * C_dummy ] = 33
 qc14: - x[3,2] + x[4,2] + [ 41.46055555555555 u[3,2] * C_dummy ] = 31
 qc15: - x[3,3] + x[4,3] + [ 65.77777777777777 u[3,3] * C_dummy ] = 77
 qc16: - x[4,0] + x[5,0] + [ 17.28722222222222 u[4,0] * C_dummy ] = 41
 qc17: - x[4,1] + x[5,1] + [ 31.03888888888889 u[4,1] * C_dummy ] = 45
 qc18: - x[4,2] + x[5,2] + [ 41.46055555555555 u[4,2] * C_dummy ] = 33
 qc19: - x[4,3] + x[5,3] + [ 65.77777777777777 u[4,3] * C_dummy ] = 103
Bounds
 u[0,0] >= 15
 u[0,1] >= 15
 u[0,2] >= 15
 u[0,3] >= 15
 u[1,0] >= 15
 u[1,1] >= 15
 u[1,2] >= 15
 u[1,3] >= 15
 u[2,0] >= 15
 u[2,1] >= 15
 u[2,2] >= 15
 u[2,3] >= 15
 u[3,0] >= 15
 u[3,1] >= 15
 u[3,2] >= 15
 u[3,3] >= 15
 u[4,0] >= 15
 u[4,1] >= 15
 u[4,2] >= 15
 u[4,3] >= 15
 50 <= C <= 74
 u_41 >= 15
 u_43 >= 15
 y[0,0] free
 y[0,1] free
 y[0,2] free
 y[0,3] free
 y[1,0] free
 y[1,1] free
 y[1,2] free
 y[1,3] free
 y[2,0] free
 y[2,1] free
 y[2,2] free
 y[2,3] free
 y[3,0] free
 y[3,1] free
 y[3,2] free
 y[3,3] free
 y[4,0] free
 y[4,1] free
 y[4,2] free
 y[4,3] free
 y[5,0] free
 y[5,1] free
 y[5,2] free
 y[5,3] free
 z[0,0] free
 z[0,1] free
 z[0,2] free
 z[0,3] free
 z[1,0] free
 z[1,1] free
 z[1,2] free
 z[1,3] free
 z[2,0] free
 z[2,1] free
 z[2,2] free
 z[2,3] free
 z[3,0] free
 z[3,1] free
 z[3,2] free
 z[3,3] free
 z[4,0] free
 z[4,1] free
 z[4,2] free
 z[4,3] free
Generals
 u[0,0] u[0,1] u[0,2] u[0,3] u[1,0] u[1,1] u[1,2] u[1,3] u[2,0] u[2,1]
 u[2,2] u[2,3] u[3,0] u[3,1] u[3,2] u[3,3] u[4,0] u[4,1] u[4,2] u[4,3] C
 u_41 u_43
End
